(declare-fun b9 () (_ FloatingPoint 11 53))
(declare-fun b44 () (_ FloatingPoint 11 53))
(declare-fun b30 () (_ FloatingPoint 11 53))
(declare-fun b37 () (_ FloatingPoint 11 53))
(declare-fun b34 () (_ FloatingPoint 11 53))
(declare-fun b54 () (_ FloatingPoint 11 53))
(declare-fun b51 () (_ FloatingPoint 11 53))
(declare-fun b41 () (_ FloatingPoint 11 53))
(declare-fun b29 () (_ FloatingPoint 11 53))
(declare-fun b11 () (_ FloatingPoint 11 53))
(declare-fun b13 () (_ FloatingPoint 11 53))
(assert (let ((.def_38 (fp.leq b54 b13)))
(let ((.def_35 (fp.leq b13 b51)))
(let ((.def_32 (fp.leq b44 b30)))
(let ((.def_30 (fp.leq b30 b41)))
(let ((.def_27 (fp.leq b44 b9)))
(let ((.def_24 (fp.leq b9 b41)))
(let ((.def_21 (fp.leq b37 b29)))
(let ((.def_18 (fp.leq b29 b34)))
(let ((.def_14 (fp.leq b9 b11)))
(let ((.def_11 (fp.add RNE b13 b9)))
(let ((.def_13 (fp.lt b11 .def_11)))
(let ((.def_15 (and .def_13 .def_14)))
(let ((.def_19 (and .def_15 .def_18)))
(let ((.def_22 (and .def_19 .def_21)))
(let ((.def_25 (and .def_22 .def_24)))
(let ((.def_28 (and .def_25 .def_27)))
(let ((.def_31 (and .def_28 .def_30)))
(let ((.def_33 (and .def_31 .def_32)))
(let ((.def_36 (and .def_33 .def_35)))
(let ((.def_39 (and .def_36 .def_38)))
.def_39)))))))))))))))))))))
(check-sat)
